; TODO try replacing this with int
(declare-datatype nat ((zero) (s (s_0 nat))))
(declare-datatype tree (par (a) ((Leaf) (Node (Node_0 (tree a)) (Node_1 a) (Node_2 (tree a))))))
(declare-datatype pair (par (a b) ((Pair (Pair_0 a) (Pair_1 b)))))
(define-sort ptree (a b) (tree (pair a b)))
(declare-const LeafP (par (a b) (ptree a b)))
(assert (par (a b) (= (LeafP a b) (Leaf (pair a b)))))
(declare-fun NodeP (par (a b) ((ptree a b) a b (ptree a b)) (ptree a b)))
(assert (par (a b) (forall ((l (ptree a b)) (x a) (y b) (r (ptree a b))) (= (NodeP a b l x y r) (Node (pair a b) l (Pair a b x y) r)))))
(define-sort lheap (a) (ptree a nat))
(declare-fun less (par (a) (a a) Bool))
(assert (forall ((x nat)) (not (less nat x zero))))
(assert (forall ((x nat)) (less nat zero (s x))))
(assert (forall ((x nat) (y nat)) (= (less nat (s x) (s y)) (less nat x y))))
(declare-fun leq (par (a) (a a) Bool))
(assert (par (a) (forall ((x a) (y a)) (= (less a x y) (and (leq a x y) (distinct x y))))))
(assert (par (a) (forall ((x a)) (leq a x x))))
(assert (par (a) (forall ((x a) (y a) (z a)) (=> (and (leq a x y) (leq a y z)) (leq a x z)))))
(assert (par (a) (forall ((x a) (y a)) (=> (and (leq a x y) (leq a y x)) (= x y)))))
(assert (par (a) (forall ((x a) (y a)) (or (leq a x y) (leq a y x)))))
(declare-fun mht (par (a) ((lheap a)) nat))
(assert (par (a) (= (mht a (LeafP a nat)) zero)))
(assert (par (a) (forall ((l (lheap a)) (m a) (n nat) (r (lheap a))) (= (mht a (NodeP a nat l m n r)) n))))
(declare-fun ltree (par (a) ((lheap a)) Bool))
(assert (par (a) (ltree a (LeafP a nat))))
; TODO in the text mh is used instead of mht here
(assert (par (a) (forall ((l (lheap a)) (m a) (n nat) (r (lheap a))) (= (ltree a (NodeP a nat l m n r))
  (and (leq nat (mht a r) (mht a l)) (= n (s (mht a r))) (ltree a l) (ltree a r))))))
(declare-fun node_lheap (par (a) ((lheap a) a (lheap a)) (lheap a)))
(assert (par (a) (forall ((l (lheap a)) (x a) (r (lheap a))) (= (node_lheap a l x r)
  (let ((mhl (mht a l)) (mhr (mht a r))) (ite (leq nat mhr mhl) (NodeP a nat l x (s mhr) r) (NodeP a nat r x (s mhl) l)))))))
(declare-fun merge_lheap (par (a) ((lheap a) (lheap a)) (lheap a)))
(assert (par (a) (forall ((t (lheap a))) (= (merge_lheap a (LeafP a nat) t) t))))
(assert (par (a) (forall ((t (lheap a))) (= (merge_lheap a t (LeafP a nat)) t))))
(assert (par (a) (forall ((l1 (lheap a)) (a1 a) (n1 nat) (r1 (lheap a)) (l2 (lheap a)) (a2 a) (n2 nat) (r2 (lheap a)))
  (= (merge_lheap a (NodeP a nat l1 a1 n1 r1) (NodeP a nat l2 a2 n2 r2))
    (ite (leq a a1 a2) (node_lheap a l1 a1 (merge_lheap a r1 (NodeP a nat l2 a2 n2 r2)))
      (node_lheap a l2 a2 (merge_lheap a (NodeP a nat l1 a1 n1 r1) r2)))))))

; TODO if we write lheap instead of ltree Vampire crashes. Fix it with a user error message. ; ltree l & ltree r -> ltree (merge l r)
(assert-not (par (a) (forall ((l (lheap a)) (r (lheap a))) (=> (and (ltree a l) (ltree a r)) (ltree a (merge_lheap a l r))))))
